; faust :: corpus-study/repo_src/faust/faust/tables/manager.py :: EVENT 'TableManager._recovery_started' :: structured encoding (verdict: unsat)
; Generated by snf-pipeline (encoder.py) -- run with any
; SMT-LIB2-compliant solver, e.g. `z3 faust__corpus-study_repo_src_faust_faust_tables_manager.py__TableManager._recovery_started__structured.smt2`
; benchmark generated from python API
(set-info :status unknown)
(assert
 false)
(check-sat)
